2 1
3 1
3 2
4 1
4 2
4 3
5 1
5 2
5 3
5 4
6 1
6 2
6 3
6 4
6 5
7 1
7 2
7 3
7 4
7 5
7 6
8 1
8 2
8 3
8 4
8 5
8 6
8 7
9 1
9 2
9 3
9 4
9 5
9 6
9 7
9 8
10 1
10 2
11 1
11 2
11 3
11 10
12 2
12 3
12 4
12 10
12 11
13 3
13 4
13 5
13 10
13 11
13 12
14 4
14 5
14 6
14 10
14 11
14 12
14 13
15 5
15 6
15 7
15 10
15 11
15 12
15 13
15 14
16 6
16 7
16 8
16 10
16 11
16 12
16 13
16 14
16 15
17 7
17 8
17 9
17 10
17 11
17 12
17 13
17 14
17 15
17 16
18 8
18 9
18 10
18 11
18 12
18 13
18 14
18 15
18 16
18 17
19 1
19 3
19 10
19 11
20 2
20 4
20 10
20 11
20 12
20 19
21 1
21 3
21 5
21 11
21 12
21 13
21 19
21 20
22 2
22 4
22 6
22 12
22 13
22 14
22 19
22 20
22 21
23 3
23 5
23 7
23 13
23 14
23 15
23 19
23 20
23 21
23 22
24 4
24 6
24 8
24 14
24 15
24 16
24 19
24 20
24 21
24 22
24 23
25 5
25 7
25 9
25 15
25 16
25 17
25 19
25 20
25 21
25 22
25 23
25 24
26 6
26 8
26 16
26 17
26 18
26 19
26 20
26 21
26 22
26 23
26 24
26 25
27 7
27 9
27 17
27 18
27 19
27 20
27 21
27 22
27 23
27 24
27 25
27 26
28 1
28 4
28 10
28 12
28 19
28 20
29 2
29 5
29 11
29 13
29 19
29 20
29 21
29 28
30 3
30 6
30 10
30 12
30 14
30 20
30 21
30 22
30 28
30 29
31 1
31 4
31 7
31 11
31 13
31 15
31 21
31 22
31 23
31 28
31 29
31 30
32 2
32 5
32 8
32 12
32 14
32 16
32 22
32 23
32 24
32 28
32 29
32 30
32 31
33 3
33 6
33 9
33 13
33 15
33 17
33 23
33 24
33 25
33 28
33 29
33 30
33 31
33 32
34 4
34 7
34 14
34 16
34 18
34 24
34 25
34 26
34 28
34 29
34 30
34 31
34 32
34 33
35 5
35 8
35 15
35 17
35 25
35 26
35 27
35 28
35 29
35 30
35 31
35 32
35 33
35 34
36 6
36 9
36 16
36 18
36 26
36 27
36 28
36 29
36 30
36 31
36 32
36 33
36 34
36 35
37 1
37 5
37 10
37 13
37 19
37 21
37 28
37 29
38 2
38 6
38 11
38 14
38 20
38 22
38 28
38 29
38 30
38 37
39 3
39 7
39 12
39 15
39 19
39 21
39 23
39 29
39 30
39 31
39 37
39 38
40 4
40 8
40 10
40 13
40 16
40 20
40 22
40 24
40 30
40 31
40 32
40 37
40 38
40 39
41 1
41 5
41 9
41 11
41 14
41 17
41 21
41 23
41 25
41 31
41 32
41 33
41 37
41 38
41 39
41 40
42 2
42 6
42 12
42 15
42 18
42 22
42 24
42 26
42 32
42 33
42 34
42 37
42 38
42 39
42 40
42 41
43 3
43 7
43 13
43 16
43 23
43 25
43 27
43 33
43 34
43 35
43 37
43 38
43 39
43 40
43 41
43 42
44 4
44 8
44 14
44 17
44 24
44 26
44 34
44 35
44 36
44 37
44 38
44 39
44 40
44 41
44 42
44 43
45 5
45 9
45 15
45 18
45 25
45 27
45 35
45 36
45 37
45 38
45 39
45 40
45 41
45 42
45 43
45 44
46 1
46 6
46 10
46 14
46 19
46 22
46 28
46 30
46 37
46 38
47 2
47 7
47 11
47 15
47 20
47 23
47 29
47 31
47 37
47 38
47 39
47 46
48 3
48 8
48 12
48 16
48 21
48 24
48 28
48 30
48 32
48 38
48 39
48 40
48 46
48 47
49 4
49 9
49 13
49 17
49 19
49 22
49 25
49 29
49 31
49 33
49 39
49 40
49 41
49 46
49 47
49 48
50 5
50 10
50 14
50 18
50 20
50 23
50 26
50 30
50 32
50 34
50 40
50 41
50 42
50 46
50 47
50 48
50 49
51 1
51 6
51 11
51 15
51 21
51 24
51 27
51 31
51 33
51 35
51 41
51 42
51 43
51 46
51 47
51 48
51 49
51 50
52 2
52 7
52 12
52 16
52 22
52 25
52 32
52 34
52 36
52 42
52 43
52 44
52 46
52 47
52 48
52 49
52 50
52 51
53 3
53 8
53 13
53 17
53 23
53 26
53 33
53 35
53 43
53 44
53 45
53 46
53 47
53 48
53 49
53 50
53 51
53 52
54 4
54 9
54 14
54 18
54 24
54 27
54 34
54 36
54 44
54 45
54 46
54 47
54 48
54 49
54 50
54 51
54 52
54 53
55 1
55 7
55 10
55 15
55 19
55 23
55 28
55 31
55 37
55 39
55 46
55 47
56 2
56 8
56 11
56 16
56 20
56 24
56 29
56 32
56 38
56 40
56 46
56 47
56 48
56 55
57 3
57 9
57 12
57 17
57 21
57 25
57 30
57 33
57 37
57 39
57 41
57 47
57 48
57 49
57 55
57 56
58 4
58 13
58 18
58 22
58 26
58 28
58 31
58 34
58 38
58 40
58 42
58 48
58 49
58 50
58 55
58 56
58 57
59 5
59 14
59 19
59 23
59 27
59 29
59 32
59 35
59 39
59 41
59 43
59 49
59 50
59 51
59 55
59 56
59 57
59 58
60 6
60 10
60 15
60 20
60 24
60 30
60 33
60 36
60 40
60 42
60 44
60 50
60 51
60 52
60 55
60 56
60 57
60 58
60 59
61 1
61 7
61 11
61 16
61 21
61 25
61 31
61 34
61 41
61 43
61 45
61 51
61 52
61 53
61 55
61 56
61 57
61 58
61 59
61 60
62 2
62 8
62 12
62 17
62 22
62 26
62 32
62 35
62 42
62 44
62 52
62 53
62 54
62 55
62 56
62 57
62 58
62 59
62 60
62 61
63 3
63 9
63 13
63 18
63 23
63 27
63 33
63 36
63 43
63 45
63 53
63 54
63 55
63 56
63 57
63 58
63 59
63 60
63 61
63 62
64 1
64 8
64 10
64 16
64 19
64 24
64 28
64 32
64 37
64 40
64 46
64 48
64 55
64 56
65 2
65 9
65 11
65 17
65 20
65 25
65 29
65 33
65 38
65 41
65 47
65 49
65 55
65 56
65 57
65 64
66 3
66 12
66 18
66 21
66 26
66 30
66 34
66 39
66 42
66 46
66 48
66 50
66 56
66 57
66 58
66 64
66 65
67 4
67 13
67 22
67 27
67 31
67 35
67 37
67 40
67 43
67 47
67 49
67 51
67 57
67 58
67 59
67 64
67 65
67 66
68 5
68 14
68 23
68 28
68 32
68 36
68 38
68 41
68 44
68 48
68 50
68 52
68 58
68 59
68 60
68 64
68 65
68 66
68 67
69 6
69 15
69 19
69 24
69 29
69 33
69 39
69 42
69 45
69 49
69 51
69 53
69 59
69 60
69 61
69 64
69 65
69 66
69 67
69 68
70 7
70 10
70 16
70 20
70 25
70 30
70 34
70 40
70 43
70 50
70 52
70 54
70 60
70 61
70 62
70 64
70 65
70 66
70 67
70 68
70 69
71 1
71 8
71 11
71 17
71 21
71 26
71 31
71 35
71 41
71 44
71 51
71 53
71 61
71 62
71 63
71 64
71 65
71 66
71 67
71 68
71 69
71 70
72 2
72 9
72 12
72 18
72 22
72 27
72 32
72 36
72 42
72 45
72 52
72 54
72 62
72 63
72 64
72 65
72 66
72 67
72 68
72 69
72 70
72 71
73 1
73 9
73 10
73 17
73 19
73 25
73 28
73 33
73 37
73 41
73 46
73 49
73 55
73 57
73 64
73 65
74 2
74 11
74 18
74 20
74 26
74 29
74 34
74 38
74 42
74 47
74 50
74 56
74 58
74 64
74 65
74 66
74 73
75 3
75 12
75 21
75 27
75 30
75 35
75 39
75 43
75 48
75 51
75 55
75 57
75 59
75 65
75 66
75 67
75 73
75 74
76 4
76 13
76 22
76 31
76 36
76 40
76 44
76 46
76 49
76 52
76 56
76 58
76 60
76 66
76 67
76 68
76 73
76 74
76 75
77 5
77 14
77 23
77 32
77 37
77 41
77 45
77 47
77 50
77 53
77 57
77 59
77 61
77 67
77 68
77 69
77 73
77 74
77 75
77 76
78 6
78 15
78 24
78 28
78 33
78 38
78 42
78 48
78 51
78 54
78 58
78 60
78 62
78 68
78 69
78 70
78 73
78 74
78 75
78 76
78 77
79 7
79 16
79 19
79 25
79 29
79 34
79 39
79 43
79 49
79 52
79 59
79 61
79 63
79 69
79 70
79 71
79 73
79 74
79 75
79 76
79 77
79 78
80 8
80 10
80 17
80 20
80 26
80 30
80 35
80 40
80 44
80 50
80 53
80 60
80 62
80 70
80 71
80 72
80 73
80 74
80 75
80 76
80 77
80 78
80 79
81 1
81 9
81 11
81 18
81 21
81 27
81 31
81 36
81 41
81 45
81 51
81 54
81 61
81 63
81 71
81 72
81 73
81 74
81 75
81 76
81 77
81 78
81 79
81 80
10